NAME          DCAP_3_3_2_500_SS130
ROWS
 N  OBJ
 L  CON1
 L  CON2
 L  CON3
 L  CON4
 L  CON5
 L  CON6
 L  CON7
 L  CON8
 L  CON9
 L  CON10
 L  CON11
 L  CON12
 E  CON13
 E  CON14
 E  CON15
 E  CON16
 E  CON17
 E  CON18
COLUMNS
    x[1,1]    OBJ       6.180167      CON1      1.000000    
    x[1,1]    CON7      -1.000000     CON8      -1.000000   
    x[1,2]    OBJ       5.039546      CON2      1.000000    
    x[1,2]    CON8      -1.000000   
    x[2,1]    OBJ       6.732585      CON3      1.000000    
    x[2,1]    CON9      -1.000000     CON10     -1.000000   
    x[2,2]    OBJ       7.443064      CON4      1.000000    
    x[2,2]    CON10     -1.000000   
    x[3,1]    OBJ       6.563535      CON5      1.000000    
    x[3,1]    CON11     -1.000000     CON12     -1.000000   
    x[3,2]    OBJ       6.054841      CON6      1.000000    
    x[3,2]    CON12     -1.000000   
    MARKER    'MARKER'                'INTORG'
    u[1,1]    OBJ       48.076654     CON1      -1.000000   
    u[1,2]    OBJ       49.466655     CON2      -1.000000   
    u[2,1]    OBJ       49.996186     CON3      -1.000000   
    u[2,2]    OBJ       32.230043     CON4      -1.000000   
    u[3,1]    OBJ       20.066487     CON5      -1.000000   
    u[3,2]    OBJ       27.484319     CON6      -1.000000   
    y[1,1,1]  OBJ       9.290462      CON7      0.600875    
    y[1,1,1]  CON13     1.000000    
    y[1,1,2]  OBJ       9.836230      CON8      1.454975    
    y[1,1,2]  CON14     1.000000    
    y[1,2,1]  OBJ       5.482009      CON7      0.991256    
    y[1,2,1]  CON15     1.000000    
    y[1,2,2]  OBJ       6.817944      CON8      0.872512    
    y[1,2,2]  CON16     1.000000    
    y[1,3,1]  OBJ       6.751131      CON7      0.511087    
    y[1,3,1]  CON17     1.000000    
    y[1,3,2]  OBJ       7.156656      CON8      1.431666    
    y[1,3,2]  CON18     1.000000    
    y[2,1,1]  OBJ       7.962852      CON9      0.600875    
    y[2,1,1]  CON13     1.000000    
    y[2,1,2]  OBJ       9.342047      CON10     1.454975    
    y[2,1,2]  CON14     1.000000    
    y[2,2,1]  OBJ       6.037114      CON9      0.991256    
    y[2,2,1]  CON15     1.000000    
    y[2,2,2]  OBJ       6.763017      CON10     0.872512    
    y[2,2,2]  CON16     1.000000    
    y[2,3,1]  OBJ       6.420899      CON9      0.511087    
    y[2,3,1]  CON17     1.000000    
    y[2,3,2]  OBJ       9.570632      CON10     1.431666    
    y[2,3,2]  CON18     1.000000    
    y[3,1,1]  OBJ       5.527397      CON11     0.600875    
    y[3,1,1]  CON13     1.000000    
    y[3,1,2]  OBJ       7.632412      CON12     1.454975    
    y[3,1,2]  CON14     1.000000    
    y[3,2,1]  OBJ       8.048138      CON11     0.991256    
    y[3,2,1]  CON15     1.000000    
    y[3,2,2]  OBJ       9.980788      CON12     0.872512    
    y[3,2,2]  CON16     1.000000    
    y[3,3,1]  OBJ       7.433480      CON11     0.511087    
    y[3,3,1]  CON17     1.000000    
    y[3,3,2]  OBJ       6.832322      CON12     1.431666    
    y[3,3,2]  CON18     1.000000    
    z[1,1]    OBJ       619.709719    CON13     1.000000    
    z[1,2]    OBJ       672.642002    CON14     1.000000    
    z[2,1]    OBJ       821.668851    CON15     1.000000    
    z[2,2]    OBJ       813.637087    CON16     1.000000    
    z[3,1]    OBJ       795.597294    CON17     1.000000    
    z[3,2]    OBJ       672.193084    CON18     1.000000    
    MARKER    'MARKER'                 'INTEND'
RHS
    RHS       CON1      -0.000000     CON2      -0.000000   
    RHS       CON3      -0.000000     CON4      -0.000000   
    RHS       CON5      -0.000000     CON6      -0.000000   
    RHS       CON7      -0.000000     CON8      -0.000000   
    RHS       CON9      -0.000000     CON10     -0.000000   
    RHS       CON11     -0.000000     CON12     -0.000000   
    RHS       CON13     1.000000      CON14     1.000000    
    RHS       CON15     1.000000      CON16     1.000000    
    RHS       CON17     1.000000      CON18     1.000000    
BOUNDS
 BV BOUND     u[1,1]  
 BV BOUND     u[1,2]  
 BV BOUND     u[2,1]  
 BV BOUND     u[2,2]  
 BV BOUND     u[3,1]  
 BV BOUND     u[3,2]  
 BV BOUND     y[1,1,1]
 BV BOUND     y[1,1,2]
 BV BOUND     y[1,2,1]
 BV BOUND     y[1,2,2]
 BV BOUND     y[1,3,1]
 BV BOUND     y[1,3,2]
 BV BOUND     y[2,1,1]
 BV BOUND     y[2,1,2]
 BV BOUND     y[2,2,1]
 BV BOUND     y[2,2,2]
 BV BOUND     y[2,3,1]
 BV BOUND     y[2,3,2]
 BV BOUND     y[3,1,1]
 BV BOUND     y[3,1,2]
 BV BOUND     y[3,2,1]
 BV BOUND     y[3,2,2]
 BV BOUND     y[3,3,1]
 BV BOUND     y[3,3,2]
 BV BOUND     z[1,1]  
 BV BOUND     z[1,2]  
 BV BOUND     z[2,1]  
 BV BOUND     z[2,2]  
 BV BOUND     z[3,1]  
 BV BOUND     z[3,2]  
ENDATA
